c Random generated cnf formula, satisfiable: false
p cnf 10 50
5 -9 7 0
-1 6 10 0
9 5 7 0
10 4 7 0
8 5 9 0
-9 7 5 0
6 -5 -7 0
3 -7 1 0
-9 -8 -7 0
4 -2 6 0
6 3 10 0
-10 2 8 0
-8 10 2 0
4 9 -1 0
5 -7 -8 0
-1 2 -8 0
3 6 -1 0
3 -10 6 0
7 9 4 0
7 -8 -6 0
6 -10 -2 0
1 -8 -6 0
-5 -10 2 0
-9 3 -1 0
-6 -5 7 0
8 -10 5 0
6 1 10 0
4 8 -9 0
-5 -2 -7 0
4 8 -5 0
8 -10 6 0
-8 -2 6 0
-8 -6 7 0
5 -8 -7 0
-1 6 -3 0
9 -7 2 0
10 -1 -8 0
-9 -1 5 0
-8 -5 10 0
-4 -7 6 0
-10 9 1 0
9 10 -7 0
3 -7 2 0
-2 -9 6 0
6 -8 7 0
-6 -7 -2 0
-6 -5 -1 0
-4 8 -6 0
9 -6 5 0
-4 7 -8 0
